************************************************************************
file with basedata            : cm110_.bas
initial value random generator: 742695298
************************************************************************
projects                      :  1
jobs (incl. supersource/sink ):  18
horizon                       :  87
RESOURCES
  - renewable                 :  2   R
  - nonrenewable              :  2   N
  - doubly constrained        :  0   D
************************************************************************
PROJECT INFORMATION:
pronr.  #jobs rel.date duedate tardcost  MPM-Time
    1     16      0       30       15       30
************************************************************************
PRECEDENCE RELATIONS:
jobnr.    #modes  #successors   successors
   1        1          3           2   3   4
   2        1          3           7   9  13
   3        1          3           7   9  11
   4        1          3           5   6   8
   5        1          3           7  15  16
   6        1          3           9  10  11
   7        1          1          12
   8        1          2          14  15
   9        1          1          16
  10        1          3          12  14  15
  11        1          1          17
  12        1          1          17
  13        1          2          14  17
  14        1          1          16
  15        1          1          18
  16        1          1          18
  17        1          1          18
  18        1          0        
************************************************************************
REQUESTS/DURATIONS:
jobnr. mode duration  R 1  R 2  N 1  N 2
------------------------------------------------------------------------
  1      1     0       0    0    0    0
  2      1     2       0    7    7    0
  3      1     9       0    2    8    0
  4      1     3       5    0    0    6
  5      1    10       0    8    2    0
  6      1    10       0    4    6    0
  7      1     8       1    0    6    0
  8      1     6       2    0    3    0
  9      1     3       0    8    0    4
 10      1     8       8    0    3    0
 11      1     5       6    0    8    0
 12      1     6      10    0    0    5
 13      1     5       0    4    6    0
 14      1     3       0   10    0    1
 15      1     2       1    0    5    0
 16      1     4       0    4    0    5
 17      1     3       8    0    6    0
 18      1     0       0    0    0    0
************************************************************************
RESOURCEAVAILABILITIES:
  R 1  R 2  N 1  N 2
   13   14   60   21
************************************************************************
